# Solution for model p01_budget_1p430
# Objective value = 1.4300000000000632e+00
Risk 1.4300000000000632e+00
0 0
1 0
3 0.001
4 30.001
5 3.0002000000000002e+01
6 40.002
7 30.001
9 6.1516935401500810e+01
c(0,1)_Rl 0.001
c(0,1)_Ru 0
c(0,3)_Rl 0
c(0,3)_Ru 0
c(3,4)_Rl 0
c(3,4)_Ru 0
c(4,5)_Rl 0
c(4,5)_Ru 0
c(3,5)_Rl 0
c(3,5)_Ru 0
c(1,2)_l 0
c(1,2)_u 30
c(2,7)_Fl 0
c(2,7)_Fu 5.4361580748444238e-01
c(1,7)_Rl 0
c(1,7)_Ru 0
c(5,6)_Rl 0
c(5,6)_Ru 0
c(3,6)_Rl 0
c(3,6)_Ru 0
c(7,8)_l 0
c(7,8)_u 3.1514935401500807e+01
c(1,8)_Fl 0
c(1,8)_Fu 4.4319209625781042e-01
c(0,9)_Rl 0
c(0,9)_Ru 2.5516335401500811e+01
c(8,9)_Fl 0
c(8,9)_Fu 4.4319209625781042e-01
c(6,9)_Rl 0
c(6,9)_Ru 0
Cost 2.5517335401500812e+01
